s td 28 2 33
b 1 1 10
b 2 10 11
b 3 2 12
b 4 2 17
b 5 3
b 6 4 22
b 7 22 23
b 8 5 13
b 9 5 29
b 10 5 30
b 11 6
b 12 7
b 13 8 33
b 14 32 33
b 15 33
b 16 9
b 17 14
b 18 15
b 19 16
b 20 18
b 21 19
b 22 20
b 23 21
b 24 24 25
b 25 26
b 26 27
b 27 28
b 28 31
1 2
1 3
1 5
1 6
1 8
1 11
1 12
1 13
1 16
1 17
1 18
1 19
1 20
1 21
1 22
1 23
1 24
1 25
1 26
1 27
1 28
3 4
6 7
8 10
9 10
13 15
14 15
